c A SAT instance generated from a 3-CNF formula that had 24 clauses and 6 variables
p cnf 6 24
3 -5 -4 0
-3 1 5 0
-5 -3 1 0
1 -6 3 0
4 6 1 0
-3 1 4 0
-5 -3 -1 0
-4 2 -3 0
-3 1 -2 0
-6 -2 4 0
-1 4 -6 0
-6 2 -3 0
-1 4 6 0
6 -5 -3 0
5 6 4 0
-1 4 -6 0
-5 -6 -1 0
-3 5 6 0
-4 -6 -1 0
-6 -2 3 0
2 5 -4 0
-1 -2 6 0
-4 -2 -1 0
4 5 -3 0
